n = 6;
m = 5;
dias_regimen_alto_permitidos = 3;
porcentaje_regimen_alto = 60;
capacidad = [1000, 300, 500];
costo_produccion = [45, 50, 35];
demanda = [| 100, 150, 90, 80, 70, 110
           | 130, 120, 90, 80, 70, 100
           | 100, 90, 80, 70, 60, 100
           | 80, 70, 60, 50, 100, 90
           | 490, 480, 470, 460, 400, 410 |];
pago_por_mw = [70, 80, 90, 75, 87];
G = 40;
